set Z;
 set Y;
 param A{r in Z, m in Y} default 0, binary;
 var Route{m in Y}, binary;
 minimize cost: sum{m in Y} Route[m];
 subject to covers{r in Z}: sum{m in Y} A[r,m]*Route[m]>=1;
 solve; 
 printf {m in Y:  Route[m] == 1} "%s ", m > "C:/Users/Guilherme/Documents/GitHub/SirisOnRails/Results.txt";
 data;
set Z:= Z517 Z518 ;
set Y:= Y28 Y26 Y39 Y56 Y57 Y27 ;
param A := 
[Z517,Y28] 1[Z518,Y28] 1
;end;
